%
% Generated Sudoku 16x16
% Density approximation: 0.50
%
x = array2d(1..n, 1..n, [
   4,   3,   6,   7,   _,   _,   _,  11,   1,   8,  13,  16,  10,   2,   9,  12,
   9,   _,   1,   _,   8,   _,   _,   6,   7,  14,   _,  11,   _,   _,   3,   5,
   _,   _,   2,  13,   4,   _,   9,   _,   _,   _,   _,   _,   6,   7,   _,   _,
   _,  10,   5,  11,   _,   1,   _,   _,   4,   _,   _,   _,  13,  15,   _,   _,
  10,   _,   _,  15,   _,   _,   _,   _,   5,   6,   _,   1,   3,  11,   _,   _,
   _,  16,   3,  14,   _,  11,   _,   5,   _,  12,   9,  13,   _,   1,   8,   4,
   _,   9,   4,   _,  15,  12,   _,   _,   _,   _,   _,   _,   _,   _,   5,   _,
   _,   _,  11,   6,   _,   _,   _,   8,  10,  15,   _,   3,   _,   _,   _,  13,
   6,   _,   _,   _,   _,   _,   _,   _,   _,  16,   _,   _,   _,   _,   _,   9,
   _,   7,   _,   8,   _,  13,   _,   4,   6,   _,   _,   2,   _,   _,  10,  16,
  12,   1,   _,   _,   _,   6,   _,   _,   _,  10,  11,  15,   _,   _,   _,  14,
   2,  11,   _,  16,   _,   _,  10,   _,   _,   4,   1,   5,   7,   8,   6,   3,
   _,   _,  16,   9,  13,   _,   _,  15,   _,   _,  12,   _,   2,  10,   1,   _,
   _,   _,   _,  10,   _,   _,   2,  16,   9,   1,   _,   6,   _,   3,  13,   _,
  11,   2,   _,   1,   6,   _,   _,   _,   _,  13,   _,  10,  14,   _,   4,   _,
  15,   4,   _,   _,  11,   8,   1,  10,  14,   _,   _,   7,   _,   9,  16,   _
]);

n = 16;
